p edge 40 240
e 1 2
e 1 3
e 1 4
e 1 5
e 1 6
e 1 7
e 1 8
e 1 9
e 1 10
e 1 11
e 1 12
e 1 13
e 2 3
e 2 4
e 2 14
e 2 15
e 2 16
e 2 17
e 2 18
e 2 19
e 2 20
e 2 21
e 2 22
e 3 12
e 3 21
e 3 28
e 3 30
e 3 32
e 3 34
e 3 35
e 3 38
e 3 39
e 3 40
e 4 13
e 4 22
e 4 27
e 4 29
e 4 31
e 4 33
e 4 36
e 4 37
e 4 39
e 4 40
e 5 6
e 5 8
e 5 18
e 5 19
e 5 20
e 5 23
e 5 27
e 5 29
e 5 30
e 5 38
e 5 40
e 6 7
e 6 15
e 6 16
e 6 17
e 6 25
e 6 26
e 6 35
e 6 37
e 6 39
e 6 40
e 7 9
e 7 14
e 7 18
e 7 21
e 7 25
e 7 27
e 7 28
e 7 33
e 7 34
e 7 36
e 8 10
e 8 14
e 8 21
e 8 22
e 8 24
e 8 26
e 8 28
e 8 30
e 8 31
e 8 37
e 9 11
e 9 14
e 9 19
e 9 22
e 9 23
e 9 24
e 9 29
e 9 32
e 9 35
e 9 39
e 10 13
e 10 15
e 10 16
e 10 17
e 10 23
e 10 28
e 10 29
e 10 32
e 10 34
e 10 36
e 11 12
e 11 15
e 11 16
e 11 17
e 11 24
e 11 27
e 11 30
e 11 31
e 11 33
e 11 38
e 12 19
e 12 20
e 12 23
e 12 25
e 12 26
e 12 31
e 12 34
e 12 36
e 12 37
e 13 18
e 13 20
e 13 24
e 13 25
e 13 26
e 13 32
e 13 33
e 13 35
e 13 38
e 14 15
e 14 20
e 14 26
e 14 31
e 14 32
e 14 36
e 14 38
e 14 40
e 15 20
e 15 29
e 15 30
e 15 33
e 15 34
e 15 35
e 15 37
e 16 19
e 16 22
e 16 24
e 16 25
e 16 28
e 16 36
e 16 38
e 16 40
e 17 18
e 17 21
e 17 23
e 17 26
e 17 27
e 17 31
e 17 32
e 17 39
e 18 19
e 18 24
e 18 30
e 18 31
e 18 34
e 18 35
e 18 36
e 19 26
e 19 28
e 19 29
e 19 32
e 19 33
e 19 37
e 20 23
e 20 24
e 20 25
e 20 27
e 20 28
e 20 39
e 21 23
e 21 24
e 21 25
e 21 29
e 21 33
e 21 37
e 21 38
e 22 23
e 22 25
e 22 26
e 22 27
e 22 30
e 22 34
e 22 35
e 23 33
e 23 35
e 23 36
e 23 40
e 24 34
e 24 37
e 24 39
e 24 40
e 25 29
e 25 30
e 25 31
e 25 32
e 26 33
e 26 34
e 26 38
e 26 39
e 27 28
e 27 32
e 27 34
e 27 37
e 27 38
e 28 31
e 28 33
e 28 35
e 28 39
e 29 31
e 29 34
e 29 38
e 29 39
e 30 32
e 30 33
e 30 36
e 30 39
e 31 35
e 31 40
e 32 37
e 32 40
e 33 40
e 34 40
e 35 37
e 35 38
e 36 37
e 36 38
e 36 39
